1487
98 77 88 10 19 69 31 97 17 28 3 45 78 52 37 59 74 1 47 85 58 79 72 70 82 83 66 44 18 81 20 33 86 40 80 42 11 29 30 89 46 76 34 68 90 24 38 14 32 91 13 9 27 49 23 62 8 16 39 7 55 57 15 99 21 92 95 35 41 75 4 26 36 43 71 48 87 63 73 65 96 93 22 2 67 60 64 94 54 84 25 5 51 61 12 53 6 50 56 
